(declare-const b1 Bool)
(declare-const b2 Bool)
(declare-const b3 Bool)
(declare-const b4 Bool)
(declare-const b5 Bool)
;;Every student should pair with one of its perferenced student
(assert (or (and b1 b2) (and b1 b3) (and b1 b4) ))
(assert (or (and b2 b1) (and b2 b3) (and b2 b5) ))
(assert (or (and b3 b2) (and b3 b1) ))
(assert (or (and b4 b1) ))
(assert (or (and b5 b2) ))
(check-sat)
(get-model)
